param n := 15;
param demand := 517;
param s := 1 108, 2 112, 3 112, 4 141, 5 87, 6 98, 7 61, 8 90, 9 132, 10 75, 11 44, 12 147, 13 127, 14 49, 15 46;
param c := 1 1599, 2 1144, 3 458, 4 2021, 5 891, 6 1115, 7 339, 8 703, 9 1339, 10 644, 11 195, 12 866, 13 1082, 14 238, 15 221;
